c WARNING: for repeatability, setting FPU to use double precision
d VARIABLES            73566        
d CONSTRAINTS          292987       
c ============================[ Problem Statistics ]=============================
c |                                                                             |
c |  Number of variables:         73566                                         |
c |  Number of clauses:          292987                                         |
c |  Parse time:                   0.05 s                                       |
c |                                                                             |
c ============================[ Search Statistics ]==============================
c | Conflicts |          ORIGINAL         |          LEARNT          | Progress |
c |           |    Vars  Clauses Literals |    Limit  Clauses Lit/Cl |          |
c ===============================================================================
c |       100 |   53486   240965   589033 |    88353      100    109 | 27.295 % |
c |       250 |   53486   240965   589033 |    97189      250     84 | 27.295 % |
c |       475 |   53486   240965   589033 |   106908      475     80 | 27.295 % |
c |       812 |   53486   240965   589033 |   117598      812     75 | 27.295 % |
c |      1318 |   53486   240965   589033 |   129358     1318     74 | 27.295 % |
c |      2077 |   53486   240965   589033 |   142294     2077     75 | 27.295 % |
c |      3216 |   53486   240965   589033 |   156524     3216     73 | 27.295 % |
c |      4924 |   53486   240965   589033 |   172176     4924     71 | 27.295 % |
c |      7486 |   53486   240965   589033 |   189394     7486     74 | 27.295 % |
c |     11330 |   53486   240965   589033 |   208333    11330     74 | 27.295 % |
c |     17096 |   53486   240965   589033 |   229167    17096     78 | 27.295 % |
c |     25745 |   53486   240965   589033 |   252083    25745     78 | 27.295 % |
c |     38719 |   53486   240965   589033 |   277292    38719     78 | 27.295 % |
c |     58180 |   53486   240965   589033 |   305021    58180     78 | 27.295 % |
c |     87372 |   53486   240965   589033 |   335523    87372     75 | 27.295 % |
c ===============================================================================
c restarts              : 255
c conflicts             : 94838          (2548 /sec)
c decisions             : 220672         (0.00 % random) (5928 /sec)
c propagations          : 160681279      (4316798 /sec)
c conflict literals     : 6905759        (48.27 % deleted)
d RESTARTS             255
d FAILURES             94838        
d NODES                220672       
d BACKTRACKS           220672       
d PROPAGATIONS         160681279    
d NOGOODSIZE           72.82 
d MEMORY               93.00 
d TIME                 37.2223 

s UNSATISFIABLE
